; benchmark generated from python API
(set-info :status unknown)
(declare-fun x_days () Int)
(assert
 (>= x_days (- 36584)))
(assert
 (<= x_days 36829))
(assert
 (>= x_days 8341))
(assert
 (<= x_days 8705))
(assert
 (let (($x29 (or (and (= (mod 2000 4) 0) (and (distinct (mod 2000 100) 0) true)) (= (mod 2000 400) 0))))
(let ((?x36 (ite (= 3 2) (ite $x29 31 31) (ite (= 3 1) (ite $x29 0 0) 0))))
(let ((?x40 (ite $x29 60 59)))
(let ((?x41 (ite (= 3 3) ?x40 ?x36)))
(let ((?x46 (ite (= 3 4) (ite $x29 91 90) ?x41)))
(let ((?x52 (ite (= 3 5) (ite $x29 121 120) ?x46)))
(let ((?x58 (ite (= 3 6) (ite $x29 152 151) ?x52)))
(let ((?x64 (ite (= 3 7) (ite $x29 182 181) ?x58)))
(let ((?x70 (ite (= 3 8) (ite $x29 213 212) ?x64)))
(let ((?x76 (ite (= 3 9) (ite $x29 244 243) ?x70)))
(let ((?x82 (ite (= 3 10) (ite $x29 274 273) ?x76)))
(let ((?x88 (ite (= 3 11) (ite $x29 305 304) ?x82)))
(let ((?x16 (- (+ (* 365 (- 2000 1)) (div (- 2000 1) 4)) (div (- 2000 1) 100))))
(let ((?x95 (+ (+ ?x16 (div (- 2000 1) 400)) (ite (= 3 12) (ite $x29 335 334) ?x88))))
(let ((?x97 (+ ?x95 (- 1 1))))
(let ((?x118 (+ x_days ?x97)))
(let ((?x2723 (mod ?x118 146097)))
(let ((?x837 (div ?x2723 36524)))
(let ((?x2766 (ite (<= 4 ?x837) 3 ?x837)))
(let ((?x854 (- ?x2723 (* ?x2766 36524))))
(let ((?x764 (mod ?x854 1461)))
(let ((?x593 (div ?x764 365)))
(let ((?x3117 (ite (<= 4 ?x593) 3 ?x593)))
(let ((?x455 (+ (+ (* (div ?x118 146097) 400) (* ?x2766 100)) (* (div ?x854 1461) 4))))
(let ((?x1632 (+ (+ ?x455 ?x3117) 1)))
(let (($x2859 (or (and (= (mod ?x1632 4) 0) (and (distinct (mod ?x1632 100) 0) true)) (= (mod ?x1632 400) 0))))
(let ((?x1374 (- ?x764 (* ?x3117 365))))
(let ((?x1263 (ite $x2859 31 31)))
(let (($x684 (>= ?x1374 ?x1263)))
(let ((?x657 (ite $x684 (+ (- ?x1374 ?x1263) 1) (+ (- ?x1374 (ite $x2859 0 0)) 1))))
(let ((?x721 (ite $x2859 60 59)))
(let (($x791 (>= ?x1374 ?x721)))
(let ((?x1695 (ite $x2859 91 90)))
(let (($x2843 (>= ?x1374 ?x1695)))
(let ((?x2007 (ite $x2843 (+ (- ?x1374 ?x1695) 1) (ite $x791 (+ (- ?x1374 ?x721) 1) ?x657))))
(let ((?x656 (ite $x2859 121 120)))
(let (($x190 (>= ?x1374 ?x656)))
(let ((?x257 (ite $x2859 152 151)))
(let (($x865 (>= ?x1374 ?x257)))
(let ((?x1746 (ite $x865 (+ (- ?x1374 ?x257) 1) (ite $x190 (+ (- ?x1374 ?x656) 1) ?x2007))))
(let ((?x1207 (ite $x2859 182 181)))
(let (($x142 (>= ?x1374 ?x1207)))
(let ((?x2715 (ite $x2859 213 212)))
(let (($x2320 (>= ?x1374 ?x2715)))
(let ((?x294 (ite $x2320 (+ (- ?x1374 ?x2715) 1) (ite $x142 (+ (- ?x1374 ?x1207) 1) ?x1746))))
(let ((?x2319 (ite $x2859 244 243)))
(let (($x1994 (>= ?x1374 ?x2319)))
(let ((?x111 (ite $x2859 274 273)))
(let (($x2786 (>= ?x1374 ?x111)))
(let ((?x470 (ite $x2786 (+ (- ?x1374 ?x111) 1) (ite $x1994 (+ (- ?x1374 ?x2319) 1) ?x294))))
(let ((?x1152 (ite $x2859 305 304)))
(let (($x2376 (>= ?x1374 ?x1152)))
(let ((?x700 (ite $x2859 335 334)))
(let (($x2489 (>= ?x1374 ?x700)))
(let ((?x2808 (ite $x2489 (+ (- ?x1374 ?x700) 1) (ite $x2376 (+ (- ?x1374 ?x1152) 1) ?x470))))
(let ((?x235 (ite $x190 5 (ite $x2843 4 (ite $x791 3 (ite $x684 2 1))))))
(let ((?x2917 (ite $x1994 9 (ite $x2320 8 (ite $x142 7 (ite $x865 6 ?x235))))))
(let ((?x1972 (+ (ite $x2489 12 (ite $x2376 11 (ite $x2786 10 ?x2917))) (+ (* 0 12) 2))))
(let ((?x2030 (- ?x1972 1)))
(let ((?x2806 (+ (mod ?x2030 12) 1)))
(let ((?x2877 (ite (or (= ?x2806 4) (= ?x2806 6) (= ?x2806 9) (= ?x2806 11)) 30 31)))
(let (($x2455 (and (= (mod (+ ?x1632 (+ 0 (div ?x2030 12))) 4) 0) (and (distinct (mod (+ ?x1632 (+ 0 (div ?x2030 12))) 100) 0) true))))
(let ((?x762 (ite (or $x2455 (= (mod (+ ?x1632 (+ 0 (div ?x2030 12))) 400) 0)) 29 28)))
(let ((?x1697 (ite (= ?x2806 2) ?x762 ?x2877)))
(let ((?x2213 (ite (> 1 ?x2808) 1 (ite (> ?x2808 ?x1697) ?x1697 ?x2808))))
(let ((?x787 (ite (> 1 ?x2213) 1 (ite (> ?x2213 ?x1697) ?x1697 ?x2213))))
(let ((?x726 (+ ?x1632 (+ 0 (div ?x2030 12)))))
(let ((?x780 (+ ?x726 (* (div 0 146097) 400))))
(let (($x3169 (or (and (= (mod ?x780 4) 0) (and (distinct (mod ?x780 100) 0) true)) (= (mod ?x780 400) 0))))
(let ((?x858 (ite (= 2 ?x2806) (ite $x3169 31 31) (ite (= 1 ?x2806) (ite $x3169 0 0) 0))))
(let ((?x2050 (ite (= 4 ?x2806) (ite $x3169 91 90) (ite (= 3 ?x2806) (ite $x3169 60 59) ?x858))))
(let ((?x134 (ite (= 6 ?x2806) (ite $x3169 152 151) (ite (= 5 ?x2806) (ite $x3169 121 120) ?x2050))))
(let ((?x1337 (ite (= 8 ?x2806) (ite $x3169 213 212) (ite (= 7 ?x2806) (ite $x3169 182 181) ?x134))))
(let ((?x2337 (ite (= 10 ?x2806) (ite $x3169 274 273) (ite (= 9 ?x2806) (ite $x3169 244 243) ?x1337))))
(let ((?x2292 (ite (= 12 ?x2806) (ite $x3169 335 334) (ite (= 11 ?x2806) (ite $x3169 305 304) ?x2337))))
(let ((?x231 (- (+ (* 365 (- ?x780 1)) (div (- ?x780 1) 4)) (div (- ?x780 1) 100))))
(let ((?x1398 (- (+ (+ (+ ?x231 (div (- ?x780 1) 400)) ?x2292) (- ?x787 1)) ?x97)))
(let ((?x2360 (+ (+ ?x1398 (mod 0 146097)) ?x97)))
(let ((?x1718 (mod ?x2360 146097)))
(let ((?x1222 (div ?x1718 36524)))
(let ((?x2348 (ite (<= 4 ?x1222) 3 ?x1222)))
(let ((?x3110 (- ?x1718 (* ?x2348 36524))))
(let ((?x2737 (mod ?x3110 1461)))
(let ((?x1755 (div ?x2737 365)))
(let ((?x2365 (ite (<= 4 ?x1755) 3 ?x1755)))
(let ((?x2172 (+ (+ (* (div ?x2360 146097) 400) (* ?x2348 100)) (* (div ?x3110 1461) 4))))
(let ((?x1262 (+ (+ ?x2172 ?x2365) 1)))
(let (($x755 (or (and (= (mod ?x1262 4) 0) (and (distinct (mod ?x1262 100) 0) true)) (= (mod ?x1262 400) 0))))
(let ((?x3164 (- ?x2737 (* ?x2365 365))))
(let ((?x1016 (ite $x755 31 31)))
(let (($x2390 (>= ?x3164 ?x1016)))
(let ((?x1202 (ite $x2390 (+ (- ?x3164 ?x1016) 1) (+ (- ?x3164 (ite $x755 0 0)) 1))))
(let ((?x2527 (ite $x755 60 59)))
(let (($x2494 (>= ?x3164 ?x2527)))
(let ((?x1919 (ite $x755 91 90)))
(let (($x1741 (>= ?x3164 ?x1919)))
(let ((?x2597 (ite $x1741 (+ (- ?x3164 ?x1919) 1) (ite $x2494 (+ (- ?x3164 ?x2527) 1) ?x1202))))
(let ((?x3194 (ite $x755 121 120)))
(let (($x406 (>= ?x3164 ?x3194)))
(let ((?x3093 (ite $x755 152 151)))
(let (($x3106 (>= ?x3164 ?x3093)))
(let ((?x1671 (ite $x3106 (+ (- ?x3164 ?x3093) 1) (ite $x406 (+ (- ?x3164 ?x3194) 1) ?x2597))))
(let ((?x2205 (ite $x755 182 181)))
(let (($x2349 (>= ?x3164 ?x2205)))
(let ((?x2536 (ite $x755 213 212)))
(let (($x1674 (>= ?x3164 ?x2536)))
(let ((?x1744 (ite $x1674 (+ (- ?x3164 ?x2536) 1) (ite $x2349 (+ (- ?x3164 ?x2205) 1) ?x1671))))
(let ((?x1235 (ite $x755 244 243)))
(let (($x2366 (>= ?x3164 ?x1235)))
(let ((?x2704 (ite $x755 274 273)))
(let (($x2364 (>= ?x3164 ?x2704)))
(let ((?x150 (ite $x2364 (+ (- ?x3164 ?x2704) 1) (ite $x2366 (+ (- ?x3164 ?x1235) 1) ?x1744))))
(let ((?x1958 (ite $x755 305 304)))
(let (($x655 (>= ?x3164 ?x1958)))
(let ((?x1931 (ite $x755 335 334)))
(let (($x478 (>= ?x3164 ?x1931)))
(let ((?x126 (ite $x478 (+ (- ?x3164 ?x1931) 1) (ite $x655 (+ (- ?x3164 ?x1958) 1) ?x150))))
(let (($x698 (= 0 0)))
(let (($x563 (and (= (mod (ite $x698 ?x726 ?x1262) 4) 0) (and (distinct (mod (ite $x698 ?x726 ?x1262) 100) 0) true))))
(let (($x2394 (or $x563 (= (mod (ite $x698 ?x726 ?x1262) 400) 0))))
(let ((?x607 (ite $x406 5 (ite $x1741 4 (ite $x2494 3 (ite $x2390 2 1))))))
(let ((?x2683 (ite $x2366 9 (ite $x1674 8 (ite $x2349 7 (ite $x3106 6 ?x607))))))
(let ((?x710 (ite $x698 ?x2806 (ite $x478 12 (ite $x655 11 (ite $x2364 10 ?x2683))))))
(let ((?x1135 (ite (= 2 ?x710) (ite $x2394 31 31) (ite (= 1 ?x710) (ite $x2394 0 0) 0))))
(let ((?x165 (ite (= 4 ?x710) (ite $x2394 91 90) (ite (= 3 ?x710) (ite $x2394 60 59) ?x1135))))
(let ((?x319 (ite (= 6 ?x710) (ite $x2394 152 151) (ite (= 5 ?x710) (ite $x2394 121 120) ?x165))))
(let ((?x367 (ite (= 8 ?x710) (ite $x2394 213 212) (ite (= 7 ?x710) (ite $x2394 182 181) ?x319))))
(let ((?x729 (ite (= 10 ?x710) (ite $x2394 274 273) (ite (= 9 ?x710) (ite $x2394 244 243) ?x367))))
(let ((?x151 (ite (= 12 ?x710) (ite $x2394 335 334) (ite (= 11 ?x710) (ite $x2394 305 304) ?x729))))
(let ((?x1678 (+ (* 365 (- (ite $x698 ?x726 ?x1262) 1)) (div (- (ite $x698 ?x726 ?x1262) 1) 4))))
(let ((?x1751 (+ (- ?x1678 (div (- (ite $x698 ?x726 ?x1262) 1) 100)) (div (- (ite $x698 ?x726 ?x1262) 1) 400))))
(= (- (+ (+ ?x1751 ?x151) (- (ite $x698 ?x787 ?x126) 1)) ?x97) (+ x_days 61))))))))))))))))))))))))))))))))))))))))))))))))))))))))))))))))))))))))))))))))))))))))))))))))))))))))))))))))))))))))))))))))))))))
(check-sat)
